W = 7;
H = 12;

cost = array2d(1..H,1..W,[1 | r in 1..H, c in 1..W]);
reward = [| 4,7,0,0,0,0,3
          | 0,0,0,0,3,0,4
          | 0,0,4,0,7,0,0
          | 7,0,3,0,0,0,0
          | -1,-1,-1,0,3,0,0
          | -1,-1,0,7,0,0,7
          | -1,-1,0,0,0,4,-1
          | -1,4,4,0,0,0,-1
          | -1,0,0,0,0,3,-1
          | 0,0,3,0,4,-1,-1
          | 3,0,0,0,0,-1,-1
          | 7,0,7,4,-1,-1,-1
          |];

length = 16; 
budget = 16;                  
          